100
128
30
61
7
7
45
19
22
53
47
47
60
43
18
37
27
35
49
36
55
31
9
45
8
27
28
60
29
13
11
13
11
39
25
10
35
61
47
33
35
37
11
12
30
11
42
46
57
2
40
19
51
46
22
23
14
21
46
14
7
25
11
29
4
23
14
40
13
2
29
18
50
18
43
60
17
32
46
20
4
16
1
62
19
35
16
19
1
60
32
22
5
21
3
2
20
4
27
23
41
61